p cnf 81 1074
-1 -2 0
-1 -3 0
-1 -4 0
-1 -5 0
-1 -6 0
-1 -7 0
-1 -8 0
-1 -9 0
-2 -3 0
-2 -4 0
-2 -5 0
-2 -6 0
-2 -7 0
-2 -8 0
-2 -9 0
-3 -4 0
-3 -5 0
-3 -6 0
-3 -7 0
-3 -8 0
-3 -9 0
-4 -5 0
-4 -6 0
-4 -7 0
-4 -8 0
-4 -9 0
-5 -6 0
-5 -7 0
-5 -8 0
-5 -9 0
-6 -7 0
-6 -8 0
-6 -9 0
-7 -8 0
-7 -9 0
-8 -9 0
-10 -11 0
-10 -12 0
-10 -13 0
-10 -14 0
-10 -15 0
-10 -16 0
-10 -17 0
-10 -18 0
-11 -12 0
-11 -13 0
-11 -14 0
-11 -15 0
-11 -16 0
-11 -17 0
-11 -18 0
-12 -13 0
-12 -14 0
-12 -15 0
-12 -16 0
-12 -17 0
-12 -18 0
-13 -14 0
-13 -15 0
-13 -16 0
-13 -17 0
-13 -18 0
-14 -15 0
-14 -16 0
-14 -17 0
-14 -18 0
-15 -16 0
-15 -17 0
-15 -18 0
-16 -17 0
-16 -18 0
-17 -18 0
-19 -20 0
-19 -21 0
-19 -22 0
-19 -23 0
-19 -24 0
-19 -25 0
-19 -26 0
-19 -27 0
-20 -21 0
-20 -22 0
-20 -23 0
-20 -24 0
-20 -25 0
-20 -26 0
-20 -27 0
-21 -22 0
-21 -23 0
-21 -24 0
-21 -25 0
-21 -26 0
-21 -27 0
-22 -23 0
-22 -24 0
-22 -25 0
-22 -26 0
-22 -27 0
-23 -24 0
-23 -25 0
-23 -26 0
-23 -27 0
-24 -25 0
-24 -26 0
-24 -27 0
-25 -26 0
-25 -27 0
-26 -27 0
-28 -29 0
-28 -30 0
-28 -31 0
-28 -32 0
-28 -33 0
-28 -34 0
-28 -35 0
-28 -36 0
-29 -30 0
-29 -31 0
-29 -32 0
-29 -33 0
-29 -34 0
-29 -35 0
-29 -36 0
-30 -31 0
-30 -32 0
-30 -33 0
-30 -34 0
-30 -35 0
-30 -36 0
-31 -32 0
-31 -33 0
-31 -34 0
-31 -35 0
-31 -36 0
-32 -33 0
-32 -34 0
-32 -35 0
-32 -36 0
-33 -34 0
-33 -35 0
-33 -36 0
-34 -35 0
-34 -36 0
-35 -36 0
-37 -38 0
-37 -39 0
-37 -40 0
-37 -41 0
-37 -42 0
-37 -43 0
-37 -44 0
-37 -45 0
-38 -39 0
-38 -40 0
-38 -41 0
-38 -42 0
-38 -43 0
-38 -44 0
-38 -45 0
-39 -40 0
-39 -41 0
-39 -42 0
-39 -43 0
-39 -44 0
-39 -45 0
-40 -41 0
-40 -42 0
-40 -43 0
-40 -44 0
-40 -45 0
-41 -42 0
-41 -43 0
-41 -44 0
-41 -45 0
-42 -43 0
-42 -44 0
-42 -45 0
-43 -44 0
-43 -45 0
-44 -45 0
-46 -47 0
-46 -48 0
-46 -49 0
-46 -50 0
-46 -51 0
-46 -52 0
-46 -53 0
-46 -54 0
-47 -48 0
-47 -49 0
-47 -50 0
-47 -51 0
-47 -52 0
-47 -53 0
-47 -54 0
-48 -49 0
-48 -50 0
-48 -51 0
-48 -52 0
-48 -53 0
-48 -54 0
-49 -50 0
-49 -51 0
-49 -52 0
-49 -53 0
-49 -54 0
-50 -51 0
-50 -52 0
-50 -53 0
-50 -54 0
-51 -52 0
-51 -53 0
-51 -54 0
-52 -53 0
-52 -54 0
-53 -54 0
-55 -56 0
-55 -57 0
-55 -58 0
-55 -59 0
-55 -60 0
-55 -61 0
-55 -62 0
-55 -63 0
-56 -57 0
-56 -58 0
-56 -59 0
-56 -60 0
-56 -61 0
-56 -62 0
-56 -63 0
-57 -58 0
-57 -59 0
-57 -60 0
-57 -61 0
-57 -62 0
-57 -63 0
-58 -59 0
-58 -60 0
-58 -61 0
-58 -62 0
-58 -63 0
-59 -60 0
-59 -61 0
-59 -62 0
-59 -63 0
-60 -61 0
-60 -62 0
-60 -63 0
-61 -62 0
-61 -63 0
-62 -63 0
-64 -65 0
-64 -66 0
-64 -67 0
-64 -68 0
-64 -69 0
-64 -70 0
-64 -71 0
-64 -72 0
-65 -66 0
-65 -67 0
-65 -68 0
-65 -69 0
-65 -70 0
-65 -71 0
-65 -72 0
-66 -67 0
-66 -68 0
-66 -69 0
-66 -70 0
-66 -71 0
-66 -72 0
-67 -68 0
-67 -69 0
-67 -70 0
-67 -71 0
-67 -72 0
-68 -69 0
-68 -70 0
-68 -71 0
-68 -72 0
-69 -70 0
-69 -71 0
-69 -72 0
-70 -71 0
-70 -72 0
-71 -72 0
-73 -74 0
-73 -75 0
-73 -76 0
-73 -77 0
-73 -78 0
-73 -79 0
-73 -80 0
-73 -81 0
-74 -75 0
-74 -76 0
-74 -77 0
-74 -78 0
-74 -79 0
-74 -80 0
-74 -81 0
-75 -76 0
-75 -77 0
-75 -78 0
-75 -79 0
-75 -80 0
-75 -81 0
-76 -77 0
-76 -78 0
-76 -79 0
-76 -80 0
-76 -81 0
-77 -78 0
-77 -79 0
-77 -80 0
-77 -81 0
-78 -79 0
-78 -80 0
-78 -81 0
-79 -80 0
-79 -81 0
-80 -81 0
1 2 3 4 5 6 7 8 9 0
10 11 12 13 14 15 16 17 18 0
19 20 21 22 23 24 25 26 27 0
28 29 30 31 32 33 34 35 36 0
37 38 39 40 41 42 43 44 45 0
46 47 48 49 50 51 52 53 54 0
55 56 57 58 59 60 61 62 63 0
64 65 66 67 68 69 70 71 72 0
73 74 75 76 77 78 79 80 81 0
-1 -10 0
-1 -19 0
-1 -28 0
-1 -37 0
-1 -46 0
-1 -55 0
-1 -64 0
-1 -73 0
-10 -19 0
-10 -28 0
-10 -37 0
-10 -46 0
-10 -55 0
-10 -64 0
-10 -73 0
-19 -28 0
-19 -37 0
-19 -46 0
-19 -55 0
-19 -64 0
-19 -73 0
-28 -37 0
-28 -46 0
-28 -55 0
-28 -64 0
-28 -73 0
-37 -46 0
-37 -55 0
-37 -64 0
-37 -73 0
-46 -55 0
-46 -64 0
-46 -73 0
-55 -64 0
-55 -73 0
-64 -73 0
-2 -11 0
-2 -20 0
-2 -29 0
-2 -38 0
-2 -47 0
-2 -56 0
-2 -65 0
-2 -74 0
-11 -20 0
-11 -29 0
-11 -38 0
-11 -47 0
-11 -56 0
-11 -65 0
-11 -74 0
-20 -29 0
-20 -38 0
-20 -47 0
-20 -56 0
-20 -65 0
-20 -74 0
-29 -38 0
-29 -47 0
-29 -56 0
-29 -65 0
-29 -74 0
-38 -47 0
-38 -56 0
-38 -65 0
-38 -74 0
-47 -56 0
-47 -65 0
-47 -74 0
-56 -65 0
-56 -74 0
-65 -74 0
-3 -12 0
-3 -21 0
-3 -30 0
-3 -39 0
-3 -48 0
-3 -57 0
-3 -66 0
-3 -75 0
-12 -21 0
-12 -30 0
-12 -39 0
-12 -48 0
-12 -57 0
-12 -66 0
-12 -75 0
-21 -30 0
-21 -39 0
-21 -48 0
-21 -57 0
-21 -66 0
-21 -75 0
-30 -39 0
-30 -48 0
-30 -57 0
-30 -66 0
-30 -75 0
-39 -48 0
-39 -57 0
-39 -66 0
-39 -75 0
-48 -57 0
-48 -66 0
-48 -75 0
-57 -66 0
-57 -75 0
-66 -75 0
-4 -13 0
-4 -22 0
-4 -31 0
-4 -40 0
-4 -49 0
-4 -58 0
-4 -67 0
-4 -76 0
-13 -22 0
-13 -31 0
-13 -40 0
-13 -49 0
-13 -58 0
-13 -67 0
-13 -76 0
-22 -31 0
-22 -40 0
-22 -49 0
-22 -58 0
-22 -67 0
-22 -76 0
-31 -40 0
-31 -49 0
-31 -58 0
-31 -67 0
-31 -76 0
-40 -49 0
-40 -58 0
-40 -67 0
-40 -76 0
-49 -58 0
-49 -67 0
-49 -76 0
-58 -67 0
-58 -76 0
-67 -76 0
-5 -14 0
-5 -23 0
-5 -32 0
-5 -41 0
-5 -50 0
-5 -59 0
-5 -68 0
-5 -77 0
-14 -23 0
-14 -32 0
-14 -41 0
-14 -50 0
-14 -59 0
-14 -68 0
-14 -77 0
-23 -32 0
-23 -41 0
-23 -50 0
-23 -59 0
-23 -68 0
-23 -77 0
-32 -41 0
-32 -50 0
-32 -59 0
-32 -68 0
-32 -77 0
-41 -50 0
-41 -59 0
-41 -68 0
-41 -77 0
-50 -59 0
-50 -68 0
-50 -77 0
-59 -68 0
-59 -77 0
-68 -77 0
-6 -15 0
-6 -24 0
-6 -33 0
-6 -42 0
-6 -51 0
-6 -60 0
-6 -69 0
-6 -78 0
-15 -24 0
-15 -33 0
-15 -42 0
-15 -51 0
-15 -60 0
-15 -69 0
-15 -78 0
-24 -33 0
-24 -42 0
-24 -51 0
-24 -60 0
-24 -69 0
-24 -78 0
-33 -42 0
-33 -51 0
-33 -60 0
-33 -69 0
-33 -78 0
-42 -51 0
-42 -60 0
-42 -69 0
-42 -78 0
-51 -60 0
-51 -69 0
-51 -78 0
-60 -69 0
-60 -78 0
-69 -78 0
-7 -16 0
-7 -25 0
-7 -34 0
-7 -43 0
-7 -52 0
-7 -61 0
-7 -70 0
-7 -79 0
-16 -25 0
-16 -34 0
-16 -43 0
-16 -52 0
-16 -61 0
-16 -70 0
-16 -79 0
-25 -34 0
-25 -43 0
-25 -52 0
-25 -61 0
-25 -70 0
-25 -79 0
-34 -43 0
-34 -52 0
-34 -61 0
-34 -70 0
-34 -79 0
-43 -52 0
-43 -61 0
-43 -70 0
-43 -79 0
-52 -61 0
-52 -70 0
-52 -79 0
-61 -70 0
-61 -79 0
-70 -79 0
-8 -17 0
-8 -26 0
-8 -35 0
-8 -44 0
-8 -53 0
-8 -62 0
-8 -71 0
-8 -80 0
-17 -26 0
-17 -35 0
-17 -44 0
-17 -53 0
-17 -62 0
-17 -71 0
-17 -80 0
-26 -35 0
-26 -44 0
-26 -53 0
-26 -62 0
-26 -71 0
-26 -80 0
-35 -44 0
-35 -53 0
-35 -62 0
-35 -71 0
-35 -80 0
-44 -53 0
-44 -62 0
-44 -71 0
-44 -80 0
-53 -62 0
-53 -71 0
-53 -80 0
-62 -71 0
-62 -80 0
-71 -80 0
-9 -18 0
-9 -27 0
-9 -36 0
-9 -45 0
-9 -54 0
-9 -63 0
-9 -72 0
-9 -81 0
-18 -27 0
-18 -36 0
-18 -45 0
-18 -54 0
-18 -63 0
-18 -72 0
-18 -81 0
-27 -36 0
-27 -45 0
-27 -54 0
-27 -63 0
-27 -72 0
-27 -81 0
-36 -45 0
-36 -54 0
-36 -63 0
-36 -72 0
-36 -81 0
-45 -54 0
-45 -63 0
-45 -72 0
-45 -81 0
-54 -63 0
-54 -72 0
-54 -81 0
-63 -72 0
-63 -81 0
-72 -81 0
1 10 19 28 37 46 55 64 73 0
2 11 20 29 38 47 56 65 74 0
3 12 21 30 39 48 57 66 75 0
4 13 22 31 40 49 58 67 76 0
5 14 23 32 41 50 59 68 77 0
6 15 24 33 42 51 60 69 78 0
7 16 25 34 43 52 61 70 79 0
8 17 26 35 44 53 62 71 80 0
9 18 27 36 45 54 63 72 81 0
-71 -81 0
-61 -81 0
-51 -81 0
-41 -81 0
-31 -81 0
-21 -81 0
-11 -81 0
-1 -81 0
-61 -71 0
-51 -71 0
-41 -71 0
-31 -71 0
-21 -71 0
-11 -71 0
-1 -71 0
-51 -61 0
-41 -61 0
-31 -61 0
-21 -61 0
-11 -61 0
-1 -61 0
-41 -51 0
-31 -51 0
-21 -51 0
-11 -51 0
-1 -51 0
-31 -41 0
-21 -41 0
-11 -41 0
-1 -41 0
-21 -31 0
-11 -31 0
-1 -31 0
-11 -21 0
-1 -21 0
-1 -11 0
-62 -72 0
-52 -72 0
-42 -72 0
-32 -72 0
-22 -72 0
-12 -72 0
-2 -72 0
-52 -62 0
-42 -62 0
-32 -62 0
-22 -62 0
-12 -62 0
-2 -62 0
-42 -52 0
-32 -52 0
-22 -52 0
-12 -52 0
-2 -52 0
-32 -42 0
-22 -42 0
-12 -42 0
-2 -42 0
-22 -32 0
-12 -32 0
-2 -32 0
-12 -22 0
-2 -22 0
-2 -12 0
-53 -63 0
-43 -63 0
-33 -63 0
-23 -63 0
-13 -63 0
-3 -63 0
-43 -53 0
-33 -53 0
-23 -53 0
-13 -53 0
-3 -53 0
-33 -43 0
-23 -43 0
-13 -43 0
-3 -43 0
-23 -33 0
-13 -33 0
-3 -33 0
-13 -23 0
-3 -23 0
-3 -13 0
-44 -54 0
-34 -54 0
-24 -54 0
-14 -54 0
-4 -54 0
-34 -44 0
-24 -44 0
-14 -44 0
-4 -44 0
-24 -34 0
-14 -34 0
-4 -34 0
-14 -24 0
-4 -24 0
-4 -14 0
-35 -45 0
-25 -45 0
-15 -45 0
-5 -45 0
-25 -35 0
-15 -35 0
-5 -35 0
-15 -25 0
-5 -25 0
-5 -15 0
-26 -36 0
-16 -36 0
-6 -36 0
-16 -26 0
-6 -26 0
-6 -16 0
-17 -27 0
-7 -27 0
-7 -17 0
-8 -18 0
-10 -20 0
-10 -30 0
-10 -40 0
-10 -50 0
-10 -60 0
-10 -70 0
-10 -80 0
-20 -30 0
-20 -40 0
-20 -50 0
-20 -60 0
-20 -70 0
-20 -80 0
-30 -40 0
-30 -50 0
-30 -60 0
-30 -70 0
-30 -80 0
-40 -50 0
-40 -60 0
-40 -70 0
-40 -80 0
-50 -60 0
-50 -70 0
-50 -80 0
-60 -70 0
-60 -80 0
-70 -80 0
-19 -29 0
-19 -39 0
-19 -49 0
-19 -59 0
-19 -69 0
-19 -79 0
-29 -39 0
-29 -49 0
-29 -59 0
-29 -69 0
-29 -79 0
-39 -49 0
-39 -59 0
-39 -69 0
-39 -79 0
-49 -59 0
-49 -69 0
-49 -79 0
-59 -69 0
-59 -79 0
-69 -79 0
-28 -38 0
-28 -48 0
-28 -58 0
-28 -68 0
-28 -78 0
-38 -48 0
-38 -58 0
-38 -68 0
-38 -78 0
-48 -58 0
-48 -68 0
-48 -78 0
-58 -68 0
-58 -78 0
-68 -78 0
-37 -47 0
-37 -57 0
-37 -67 0
-37 -77 0
-47 -57 0
-47 -67 0
-47 -77 0
-57 -67 0
-57 -77 0
-67 -77 0
-46 -56 0
-46 -66 0
-46 -76 0
-56 -66 0
-56 -76 0
-66 -76 0
-55 -65 0
-55 -75 0
-65 -75 0
-64 -74 0
-65 -73 0
-57 -73 0
-49 -73 0
-41 -73 0
-33 -73 0
-25 -73 0
-17 -73 0
-9 -73 0
-57 -65 0
-49 -65 0
-41 -65 0
-33 -65 0
-25 -65 0
-17 -65 0
-9 -65 0
-49 -57 0
-41 -57 0
-33 -57 0
-25 -57 0
-17 -57 0
-9 -57 0
-41 -49 0
-33 -49 0
-25 -49 0
-17 -49 0
-9 -49 0
-33 -41 0
-25 -41 0
-17 -41 0
-9 -41 0
-25 -33 0
-17 -33 0
-9 -33 0
-17 -25 0
-9 -25 0
-9 -17 0
-56 -64 0
-48 -64 0
-40 -64 0
-32 -64 0
-24 -64 0
-16 -64 0
-8 -64 0
-48 -56 0
-40 -56 0
-32 -56 0
-24 -56 0
-16 -56 0
-8 -56 0
-40 -48 0
-32 -48 0
-24 -48 0
-16 -48 0
-8 -48 0
-32 -40 0
-24 -40 0
-16 -40 0
-8 -40 0
-24 -32 0
-16 -32 0
-8 -32 0
-16 -24 0
-8 -24 0
-8 -16 0
-47 -55 0
-39 -55 0
-31 -55 0
-23 -55 0
-15 -55 0
-7 -55 0
-39 -47 0
-31 -47 0
-23 -47 0
-15 -47 0
-7 -47 0
-31 -39 0
-23 -39 0
-15 -39 0
-7 -39 0
-23 -31 0
-15 -31 0
-7 -31 0
-15 -23 0
-7 -23 0
-7 -15 0
-38 -46 0
-30 -46 0
-22 -46 0
-14 -46 0
-6 -46 0
-30 -38 0
-22 -38 0
-14 -38 0
-6 -38 0
-22 -30 0
-14 -30 0
-6 -30 0
-14 -22 0
-6 -22 0
-6 -14 0
-29 -37 0
-21 -37 0
-13 -37 0
-5 -37 0
-21 -29 0
-13 -29 0
-5 -29 0
-13 -21 0
-5 -21 0
-5 -13 0
-20 -28 0
-12 -28 0
-4 -28 0
-12 -20 0
-4 -20 0
-4 -12 0
-11 -19 0
-3 -19 0
-3 -11 0
-2 -10 0
-18 -26 0
-18 -34 0
-18 -42 0
-18 -50 0
-18 -58 0
-18 -66 0
-18 -74 0
-26 -34 0
-26 -42 0
-26 -50 0
-26 -58 0
-26 -66 0
-26 -74 0
-34 -42 0
-34 -50 0
-34 -58 0
-34 -66 0
-34 -74 0
-42 -50 0
-42 -58 0
-42 -66 0
-42 -74 0
-50 -58 0
-50 -66 0
-50 -74 0
-58 -66 0
-58 -74 0
-66 -74 0
-27 -35 0
-27 -43 0
-27 -51 0
-27 -59 0
-27 -67 0
-27 -75 0
-35 -43 0
-35 -51 0
-35 -59 0
-35 -67 0
-35 -75 0
-43 -51 0
-43 -59 0
-43 -67 0
-43 -75 0
-51 -59 0
-51 -67 0
-51 -75 0
-59 -67 0
-59 -75 0
-67 -75 0
-36 -44 0
-36 -52 0
-36 -60 0
-36 -68 0
-36 -76 0
-44 -52 0
-44 -60 0
-44 -68 0
-44 -76 0
-52 -60 0
-52 -68 0
-52 -76 0
-60 -68 0
-60 -76 0
-68 -76 0
-45 -53 0
-45 -61 0
-45 -69 0
-45 -77 0
-53 -61 0
-53 -69 0
-53 -77 0
-61 -69 0
-61 -77 0
-69 -77 0
-54 -62 0
-54 -70 0
-54 -78 0
-62 -70 0
-62 -78 0
-70 -78 0
-63 -71 0
-63 -79 0
-71 -79 0
-72 -80 0
